p cnf 963 2472
51 -2 -1 0
-51 2 0
-51 1 0
52 -51 -3 0
-52 51 0
-52 3 0
53 -5 -696 0
-53 5 0
-53 696 0
54 -53 -697 0
-54 53 0
-54 697 0
55 -698 -699 0
-55 698 0
-55 699 0
56 -6 -700 0
-56 6 0
-56 700 0
57 -56 -701 0
-57 56 0
-57 701 0
58 -702 -55 0
-58 702 0
-58 55 0
59 -9 -703 0
-59 9 0
-59 703 0
60 -59 -704 0
-60 59 0
-60 704 0
61 -705 -58 0
-61 705 0
-61 58 0
62 -706 -11 0
-62 706 0
-62 11 0
63 -62 -13 0
-63 62 0
-63 13 0
64 -707 -61 0
-64 707 0
-64 61 0
65 -14 -696 0
-65 14 0
-65 696 0
66 -65 -15 0
-66 65 0
-66 15 0
67 -708 -64 0
-67 708 0
-67 64 0
68 -709 -710 0
-68 709 0
-68 710 0
69 -68 -18 0
-69 68 0
-69 18 0
70 -711 -67 0
-70 711 0
-70 67 0
71 -712 -4 0
-71 712 0
-71 4 0
72 -71 -10 0
-72 71 0
-72 10 0
73 -713 -70 0
-73 713 0
-73 70 0
74 -20 -701 0
-74 20 0
-74 701 0
75 -74 -21 0
-75 74 0
-75 21 0
76 -714 -73 0
-76 714 0
-76 73 0
77 -715 -10 0
-77 715 0
-77 10 0
78 -77 -23 0
-78 77 0
-78 23 0
79 -716 -76 0
-79 716 0
-79 76 0
80 -24 -709 0
-80 24 0
-80 709 0
81 -80 -7 0
-81 80 0
-81 7 0
82 -717 -79 0
-82 717 0
-82 79 0
83 -25 -16 0
-83 25 0
-83 16 0
84 -83 -718 0
-84 83 0
-84 718 0
85 -719 -82 0
-85 719 0
-85 82 0
86 -26 -710 0
-86 26 0
-86 710 0
87 -86 -15 0
-87 86 0
-87 15 0
88 -720 -85 0
-88 720 0
-88 85 0
89 -27 -19 0
-89 27 0
-89 19 0
90 -89 -721 0
-90 89 0
-90 721 0
91 -722 -88 0
-91 722 0
-91 88 0
92 -28 -697 0
-92 28 0
-92 697 0
93 -92 -29 0
-93 92 0
-93 29 0
94 -723 -91 0
-94 723 0
-94 91 0
95 -31 -30 0
-95 31 0
-95 30 0
96 -95 -724 0
-96 95 0
-96 724 0
97 -725 -94 0
-97 725 0
-97 94 0
98 -726 -727 0
-98 726 0
-98 727 0
99 -98 -728 0
-99 98 0
-99 728 0
100 -729 -97 0
-100 729 0
-100 97 0
101 -27 -26 0
-101 27 0
-101 26 0
102 -101 -34 0
-102 101 0
-102 34 0
103 -730 -100 0
-103 730 0
-103 100 0
104 -30 -20 0
-104 30 0
-104 20 0
105 -104 -731 0
-105 104 0
-105 731 0
106 -732 -103 0
-106 732 0
-106 103 0
107 -733 -734 0
-107 733 0
-107 734 0
108 -107 -735 0
-108 107 0
-108 735 0
109 -736 -106 0
-109 736 0
-109 106 0
110 -36 -733 0
-110 36 0
-110 733 0
111 -110 -697 0
-111 110 0
-111 697 0
112 -737 -109 0
-112 737 0
-112 109 0
113 -715 -17 0
-113 715 0
-113 17 0
114 -113 -700 0
-114 113 0
-114 700 0
115 -738 -112 0
-115 738 0
-115 112 0
116 -37 -11 0
-116 37 0
-116 11 0
117 -116 -700 0
-117 116 0
-117 700 0
118 -739 -115 0
-118 739 0
-118 115 0
119 -38 -9 0
-119 38 0
-119 9 0
120 -119 -35 0
-120 119 0
-120 35 0
121 -740 -118 0
-121 740 0
-121 118 0
122 -38 -741 0
-122 38 0
-122 741 0
123 -122 -742 0
-123 122 0
-123 742 0
124 -743 -121 0
-124 743 0
-124 121 0
125 -16 -14 0
-125 16 0
-125 14 0
126 -125 -744 0
-126 125 0
-126 744 0
127 -745 -124 0
-127 745 0
-127 124 0
128 -40 -735 0
-128 40 0
-128 735 0
129 -128 -721 0
-129 128 0
-129 721 0
130 -746 -127 0
-130 746 0
-130 127 0
131 -747 -22 0
-131 747 0
-131 22 0
132 -131 -748 0
-132 131 0
-132 748 0
133 -749 -130 0
-133 749 0
-133 130 0
134 -42 -35 0
-134 42 0
-134 35 0
135 -134 -43 0
-135 134 0
-135 43 0
136 -750 -133 0
-136 750 0
-136 133 0
137 -44 -751 0
-137 44 0
-137 751 0
138 -137 -34 0
-138 137 0
-138 34 0
139 -752 -136 0
-139 752 0
-139 136 0
140 -28 -706 0
-140 28 0
-140 706 0
141 -140 -45 0
-141 140 0
-141 45 0
142 -753 -139 0
-142 753 0
-142 139 0
143 -5 -700 0
-143 5 0
-143 700 0
144 -143 -43 0
-144 143 0
-144 43 0
145 -754 -142 0
-145 754 0
-145 142 0
146 -42 -731 0
-146 42 0
-146 731 0
147 -146 -18 0
-147 146 0
-147 18 0
148 -755 -145 0
-148 755 0
-148 145 0
149 -742 -728 0
-149 742 0
-149 728 0
150 -149 -7 0
-150 149 0
-150 7 0
151 -756 -148 0
-151 756 0
-151 148 0
152 -24 -17 0
-152 24 0
-152 17 0
153 -152 -26 0
-153 152 0
-153 26 0
154 -757 -151 0
-154 757 0
-154 151 0
155 -42 -32 0
-155 42 0
-155 32 0
156 -155 -23 0
-156 155 0
-156 23 0
157 -758 -154 0
-157 758 0
-157 154 0
158 -759 -760 0
-158 759 0
-158 760 0
159 -158 -23 0
-159 158 0
-159 23 0
160 -761 -157 0
-160 761 0
-160 157 0
161 -44 -31 0
-161 44 0
-161 31 0
162 -161 -46 0
-162 161 0
-162 46 0
163 -762 -160 0
-163 762 0
-163 160 0
164 -763 -24 0
-164 763 0
-164 24 0
165 -164 -6 0
-165 164 0
-165 6 0
166 -764 -163 0
-166 764 0
-166 163 0
167 -765 -703 0
-167 765 0
-167 703 0
168 -167 -3 0
-168 167 0
-168 3 0
169 -766 -166 0
-169 766 0
-169 166 0
170 -767 -710 0
-170 767 0
-170 710 0
171 -170 -735 0
-171 170 0
-171 735 0
172 -768 -169 0
-172 768 0
-172 169 0
173 -769 -40 0
-173 769 0
-173 40 0
174 -173 -35 0
-174 173 0
-174 35 0
175 -770 -172 0
-175 770 0
-175 172 0
176 -747 -697 0
-176 747 0
-176 697 0
177 -176 -771 0
-177 176 0
-177 771 0
178 -772 -175 0
-178 772 0
-178 175 0
179 -742 -28 0
-179 742 0
-179 28 0
180 -179 -29 0
-180 179 0
-180 29 0
181 -773 -178 0
-181 773 0
-181 178 0
182 -26 -724 0
-182 26 0
-182 724 0
183 -182 -718 0
-183 182 0
-183 718 0
184 -774 -181 0
-184 774 0
-184 181 0
185 -760 -775 0
-185 760 0
-185 775 0
186 -185 -22 0
-186 185 0
-186 22 0
187 -776 -184 0
-187 776 0
-187 184 0
188 -47 -17 0
-188 47 0
-188 17 0
189 -188 -33 0
-189 188 0
-189 33 0
190 -777 -187 0
-190 777 0
-190 187 0
191 -763 -25 0
-191 763 0
-191 25 0
192 -191 -26 0
-192 191 0
-192 26 0
193 -778 -190 0
-193 778 0
-193 190 0
194 -779 -712 0
-194 779 0
-194 712 0
195 -194 -23 0
-195 194 0
-195 23 0
196 -780 -193 0
-196 780 0
-196 193 0
197 -781 -1 0
-197 781 0
-197 1 0
198 -197 -759 0
-198 197 0
-198 759 0
199 -782 -196 0
-199 782 0
-199 196 0
200 -44 -767 0
-200 44 0
-200 767 0
201 -200 -783 0
-201 200 0
-201 783 0
202 -784 -199 0
-202 784 0
-202 199 0
203 -49 -44 0
-203 49 0
-203 44 0
204 -203 -3 0
-204 203 0
-204 3 0
205 -785 -202 0
-205 785 0
-205 202 0
206 -36 -709 0
-206 36 0
-206 709 0
207 -206 -733 0
-207 206 0
-207 733 0
208 -786 -205 0
-208 786 0
-208 205 0
209 -742 -26 0
-209 742 0
-209 26 0
210 -209 -728 0
-210 209 0
-210 728 0
211 -787 -208 0
-211 787 0
-211 208 0
212 -759 -36 0
-212 759 0
-212 36 0
213 -212 -28 0
-213 212 0
-213 28 0
214 -788 -211 0
-214 788 0
-214 211 0
215 -48 -715 0
-215 48 0
-215 715 0
216 -215 -10 0
-216 215 0
-216 10 0
217 -789 -214 0
-217 789 0
-217 214 0
218 -741 -790 0
-218 741 0
-218 790 0
219 -218 -35 0
-219 218 0
-219 35 0
220 -791 -217 0
-220 791 0
-220 217 0
221 -48 -696 0
-221 48 0
-221 696 0
222 -221 -763 0
-222 221 0
-222 763 0
223 -792 -220 0
-223 792 0
-223 220 0
224 -12 -696 0
-224 12 0
-224 696 0
225 -224 -3 0
-225 224 0
-225 3 0
226 -793 -223 0
-226 793 0
-226 223 0
227 -33 -775 0
-227 33 0
-227 775 0
228 -227 -34 0
-228 227 0
-228 34 0
229 -794 -226 0
-229 794 0
-229 226 0
230 -31 -775 0
-230 31 0
-230 775 0
231 -230 -7 0
-231 230 0
-231 7 0
232 -795 -229 0
-232 795 0
-232 229 0
233 -43 -735 0
-233 43 0
-233 735 0
234 -233 -796 0
-234 233 0
-234 796 0
235 -797 -232 0
-235 797 0
-235 232 0
236 -760 -26 0
-236 760 0
-236 26 0
237 -236 -32 0
-237 236 0
-237 32 0
238 -798 -235 0
-238 798 0
-238 235 0
239 -769 -706 0
-239 769 0
-239 706 0
240 -239 -41 0
-240 239 0
-240 41 0
241 -799 -238 0
-241 799 0
-241 238 0
242 -715 -709 0
-242 715 0
-242 709 0
243 -242 -712 0
-243 242 0
-243 712 0
244 -800 -241 0
-244 800 0
-244 241 0
245 -42 -718 0
-245 42 0
-245 718 0
246 -245 -21 0
-246 245 0
-246 21 0
247 -801 -244 0
-247 801 0
-247 244 0
248 -36 -18 0
-248 36 0
-248 18 0
249 -248 -3 0
-249 248 0
-249 3 0
250 -802 -247 0
-250 802 0
-250 247 0
251 -803 -38 0
-251 803 0
-251 38 0
252 -251 -733 0
-252 251 0
-252 733 0
253 -804 -250 0
-253 804 0
-253 250 0
254 -44 -703 0
-254 44 0
-254 703 0
255 -254 -39 0
-255 254 0
-255 39 0
256 -805 -253 0
-256 805 0
-256 253 0
257 -30 -5 0
-257 30 0
-257 5 0
258 -257 -715 0
-258 257 0
-258 715 0
259 -806 -256 0
-259 806 0
-259 256 0
260 -747 -734 0
-260 747 0
-260 734 0
261 -260 -7 0
-261 260 0
-261 7 0
262 -807 -259 0
-262 807 0
-262 259 0
263 -40 -779 0
-263 40 0
-263 779 0
264 -263 -39 0
-264 263 0
-264 39 0
265 -808 -262 0
-265 808 0
-265 262 0
266 -771 -710 0
-266 771 0
-266 710 0
267 -266 -809 0
-267 266 0
-267 809 0
268 -810 -265 0
-268 810 0
-268 265 0
269 -783 -24 0
-269 783 0
-269 24 0
270 -269 -29 0
-270 269 0
-270 29 0
271 -811 -268 0
-271 811 0
-271 268 0
272 -775 -741 0
-272 775 0
-272 741 0
273 -272 -747 0
-273 272 0
-273 747 0
274 -812 -271 0
-274 812 0
-274 271 0
275 -45 -715 0
-275 45 0
-275 715 0
276 -275 -813 0
-276 275 0
-276 813 0
277 -814 -274 0
-277 814 0
-277 274 0
278 -44 -32 0
-278 44 0
-278 32 0
279 -278 -748 0
-279 278 0
-279 748 0
280 -815 -277 0
-280 815 0
-280 277 0
281 -760 -10 0
-281 760 0
-281 10 0
282 -281 -744 0
-282 281 0
-282 744 0
283 -816 -280 0
-283 816 0
-283 280 0
284 -769 -771 0
-284 769 0
-284 771 0
285 -284 -813 0
-285 284 0
-285 813 0
286 -817 -283 0
-286 817 0
-286 283 0
287 -32 -9 0
-287 32 0
-287 9 0
288 -287 -718 0
-288 287 0
-288 718 0
289 -818 -286 0
-289 818 0
-289 286 0
290 -771 -3 0
-290 771 0
-290 3 0
291 -290 -796 0
-291 290 0
-291 796 0
292 -819 -289 0
-292 819 0
-292 289 0
293 -820 -14 0
-293 820 0
-293 14 0
294 -293 -10 0
-294 293 0
-294 10 0
295 -821 -292 0
-295 821 0
-295 292 0
296 -820 -12 0
-296 820 0
-296 12 0
297 -296 -19 0
-297 296 0
-297 19 0
298 -822 -295 0
-298 822 0
-298 295 0
299 -31 -771 0
-299 31 0
-299 771 0
300 -299 -13 0
-300 299 0
-300 13 0
301 -823 -298 0
-301 823 0
-301 298 0
302 -824 -38 0
-302 824 0
-302 38 0
303 -302 -13 0
-303 302 0
-303 13 0
304 -825 -301 0
-304 825 0
-304 301 0
305 -731 -703 0
-305 731 0
-305 703 0
306 -305 -43 0
-306 305 0
-306 43 0
307 -826 -304 0
-307 826 0
-307 304 0
308 -50 -36 0
-308 50 0
-308 36 0
309 -308 -827 0
-309 308 0
-309 827 0
310 -828 -307 0
-310 828 0
-310 307 0
311 -48 -697 0
-311 48 0
-311 697 0
312 -311 -728 0
-312 311 0
-312 728 0
313 -829 -310 0
-313 829 0
-313 310 0
314 -36 -30 0
-314 36 0
-314 30 0
315 -314 -735 0
-315 314 0
-315 735 0
316 -830 -313 0
-316 830 0
-316 313 0
317 -715 -3 0
-317 715 0
-317 3 0
318 -317 -724 0
-318 317 0
-318 724 0
319 -831 -316 0
-319 831 0
-319 316 0
320 -27 -4 0
-320 27 0
-320 4 0
321 -320 -34 0
-321 320 0
-321 34 0
322 -832 -319 0
-322 832 0
-322 319 0
323 -30 -710 0
-323 30 0
-323 710 0
324 -323 -25 0
-324 323 0
-324 25 0
325 -833 -322 0
-325 833 0
-325 322 0
326 -24 -727 0
-326 24 0
-326 727 0
327 -326 -10 0
-327 326 0
-327 10 0
328 -834 -325 0
-328 834 0
-328 325 0
329 -835 -37 0
-329 835 0
-329 37 0
330 -329 -3 0
-330 329 0
-330 3 0
331 -836 -328 0
-331 836 0
-331 328 0
332 -824 -8 0
-332 824 0
-332 8 0
333 -332 -724 0
-333 332 0
-333 724 0
334 -837 -331 0
-334 837 0
-334 331 0
335 -257 -769 0
-335 257 0
-335 769 0
336 -838 -334 0
-336 838 0
-336 334 0
337 -62 -827 0
-337 62 0
-337 827 0
338 -839 -336 0
-338 839 0
-338 336 0
339 -39 -697 0
-339 39 0
-339 697 0
340 -339 -727 0
-340 339 0
-340 727 0
341 -840 -338 0
-341 840 0
-341 338 0
342 -726 -22 0
-342 726 0
-342 22 0
343 -342 -21 0
-343 342 0
-343 21 0
344 -841 -341 0
-344 841 0
-344 341 0
345 -760 -18 0
-345 760 0
-345 18 0
346 -345 -22 0
-346 345 0
-346 22 0
347 -842 -344 0
-347 842 0
-347 344 0
348 -835 -33 0
-348 835 0
-348 33 0
349 -348 -29 0
-349 348 0
-349 29 0
350 -843 -347 0
-350 843 0
-350 347 0
351 -769 -741 0
-351 769 0
-351 741 0
352 -351 -32 0
-352 351 0
-352 32 0
353 -844 -350 0
-353 844 0
-353 350 0
354 -48 -733 0
-354 48 0
-354 733 0
355 -354 -744 0
-355 354 0
-355 744 0
356 -845 -353 0
-356 845 0
-356 353 0
357 -50 -37 0
-357 50 0
-357 37 0
358 -357 -715 0
-358 357 0
-358 715 0
359 -846 -356 0
-359 846 0
-359 356 0
360 -37 -36 0
-360 37 0
-360 36 0
361 -360 -813 0
-361 360 0
-361 813 0
362 -847 -359 0
-362 847 0
-362 359 0
363 -742 -4 0
-363 742 0
-363 4 0
364 -363 -700 0
-364 363 0
-364 700 0
365 -848 -362 0
-365 848 0
-365 362 0
366 -47 -12 0
-366 47 0
-366 12 0
367 -366 -727 0
-367 366 0
-367 727 0
368 -849 -365 0
-368 849 0
-368 365 0
369 -783 -763 0
-369 783 0
-369 763 0
370 -369 -850 0
-370 369 0
-370 850 0
371 -851 -368 0
-371 851 0
-371 368 0
372 -835 -731 0
-372 835 0
-372 731 0
373 -372 -3 0
-373 372 0
-373 3 0
374 -852 -371 0
-374 852 0
-374 371 0
375 -50 -40 0
-375 50 0
-375 40 0
376 -375 -700 0
-376 375 0
-376 700 0
377 -853 -374 0
-377 853 0
-377 374 0
378 -765 -710 0
-378 765 0
-378 710 0
379 -378 -13 0
-379 378 0
-379 13 0
380 -854 -377 0
-380 854 0
-380 377 0
381 -38 -26 0
-381 38 0
-381 26 0
382 -381 -771 0
-382 381 0
-382 771 0
383 -855 -380 0
-383 855 0
-383 380 0
384 -731 -22 0
-384 731 0
-384 22 0
385 -384 -10 0
-385 384 0
-385 10 0
386 -856 -383 0
-386 856 0
-386 383 0
387 -308 -857 0
-387 308 0
-387 857 0
388 -858 -386 0
-388 858 0
-388 386 0
389 -735 -28 0
-389 735 0
-389 28 0
390 -389 -23 0
-390 389 0
-390 23 0
391 -859 -388 0
-391 859 0
-391 388 0
392 -742 -35 0
-392 742 0
-392 35 0
393 -392 -724 0
-393 392 0
-393 724 0
394 -860 -391 0
-394 860 0
-394 391 0
395 -16 -706 0
-395 16 0
-395 706 0
396 -395 -34 0
-396 395 0
-396 34 0
397 -861 -394 0
-397 861 0
-397 394 0
398 -44 -748 0
-398 44 0
-398 748 0
399 -398 -850 0
-399 398 0
-399 850 0
400 -862 -397 0
-400 862 0
-400 397 0
401 -36 -24 0
-401 36 0
-401 24 0
402 -401 -809 0
-402 401 0
-402 809 0
403 -863 -400 0
-403 863 0
-403 400 0
404 -50 -748 0
-404 50 0
-404 748 0
405 -404 -744 0
-405 404 0
-405 744 0
406 -864 -403 0
-406 864 0
-406 403 0
407 -49 -706 0
-407 49 0
-407 706 0
408 -407 -23 0
-408 407 0
-408 23 0
409 -865 -406 0
-409 865 0
-409 406 0
410 -726 -733 0
-410 726 0
-410 733 0
411 -410 -19 0
-411 410 0
-411 19 0
412 -866 -409 0
-412 866 0
-412 409 0
413 -44 -1 0
-413 44 0
-413 1 0
414 -413 -47 0
-414 413 0
-414 47 0
415 -867 -412 0
-415 867 0
-415 412 0
416 -197 -39 0
-416 197 0
-416 39 0
417 -868 -415 0
-417 868 0
-417 415 0
418 -769 -3 0
-418 769 0
-418 3 0
419 -418 -34 0
-419 418 0
-419 34 0
420 -869 -417 0
-420 869 0
-420 417 0
421 -50 -6 0
-421 50 0
-421 6 0
422 -421 -850 0
-422 421 0
-422 850 0
423 -870 -420 0
-423 870 0
-423 420 0
424 -11 -4 0
-424 11 0
-424 4 0
425 -424 -769 0
-425 424 0
-425 769 0
426 -871 -423 0
-426 871 0
-426 423 0
427 -731 -734 0
-427 731 0
-427 734 0
428 -427 -18 0
-428 427 0
-428 18 0
429 -872 -426 0
-429 872 0
-429 426 0
430 -42 -37 0
-430 42 0
-430 37 0
431 -430 -25 0
-431 430 0
-431 25 0
432 -873 -429 0
-432 873 0
-432 429 0
433 -727 -775 0
-433 727 0
-433 775 0
434 -433 -721 0
-434 433 0
-434 721 0
435 -874 -432 0
-435 874 0
-435 432 0
436 -759 -735 0
-436 759 0
-436 735 0
437 -436 -7 0
-437 436 0
-437 7 0
438 -875 -435 0
-438 875 0
-438 435 0
439 -27 -20 0
-439 27 0
-439 20 0
440 -439 -748 0
-440 439 0
-440 748 0
441 -876 -438 0
-441 876 0
-441 438 0
442 -731 -6 0
-442 731 0
-442 6 0
443 -442 -727 0
-443 442 0
-443 727 0
444 -877 -441 0
-444 877 0
-444 441 0
445 -709 -697 0
-445 709 0
-445 697 0
446 -445 -41 0
-446 445 0
-446 41 0
447 -878 -444 0
-447 878 0
-447 444 0
448 -28 -14 0
-448 28 0
-448 14 0
449 -448 -3 0
-449 448 0
-449 3 0
450 -879 -447 0
-450 879 0
-450 447 0
451 -24 -701 0
-451 24 0
-451 701 0
452 -451 -796 0
-452 451 0
-452 796 0
453 -880 -450 0
-453 880 0
-453 450 0
454 -710 -1 0
-454 710 0
-454 1 0
455 -454 -34 0
-455 454 0
-455 34 0
456 -881 -453 0
-456 881 0
-456 453 0
457 -882 -763 0
-457 882 0
-457 763 0
458 -457 -46 0
-458 457 0
-458 46 0
459 -883 -456 0
-459 883 0
-459 456 0
460 -40 -14 0
-460 40 0
-460 14 0
461 -460 -34 0
-461 460 0
-461 34 0
462 -884 -459 0
-462 884 0
-462 459 0
463 -709 -5 0
-463 709 0
-463 5 0
464 -463 -712 0
-464 463 0
-464 712 0
465 -885 -462 0
-465 885 0
-465 462 0
466 -42 -4 0
-466 42 0
-466 4 0
467 -466 -697 0
-467 466 0
-467 697 0
468 -886 -465 0
-468 886 0
-468 465 0
469 -734 -696 0
-469 734 0
-469 696 0
470 -469 -22 0
-470 469 0
-470 22 0
471 -887 -468 0
-471 887 0
-471 468 0
472 -40 -747 0
-472 40 0
-472 747 0
473 -472 -724 0
-473 472 0
-473 724 0
474 -888 -471 0
-474 888 0
-474 471 0
475 -42 -697 0
-475 42 0
-475 697 0
476 -475 -724 0
-476 475 0
-476 724 0
477 -889 -474 0
-477 889 0
-477 474 0
478 -20 -775 0
-478 20 0
-478 775 0
479 -478 -2 0
-479 478 0
-479 2 0
480 -890 -477 0
-480 890 0
-480 477 0
481 -733 -9 0
-481 733 0
-481 9 0
482 -481 -731 0
-482 481 0
-482 731 0
483 -891 -480 0
-483 891 0
-483 480 0
484 -12 -5 0
-484 12 0
-484 5 0
485 -484 -14 0
-485 484 0
-485 14 0
486 -892 -483 0
-486 892 0
-486 483 0
487 -882 -20 0
-487 882 0
-487 20 0
488 -487 -15 0
-488 487 0
-488 15 0
489 -893 -486 0
-489 893 0
-489 486 0
490 -62 -724 0
-490 62 0
-490 724 0
491 -894 -489 0
-491 894 0
-491 489 0
492 -39 -850 0
-492 39 0
-492 850 0
493 -492 -34 0
-493 492 0
-493 34 0
494 -895 -491 0
-494 895 0
-494 491 0
495 -742 -31 0
-495 742 0
-495 31 0
496 -495 -783 0
-496 495 0
-496 783 0
497 -896 -494 0
-497 896 0
-497 494 0
498 -763 -731 0
-498 763 0
-498 731 0
499 -498 -706 0
-499 498 0
-499 706 0
500 -897 -497 0
-500 897 0
-500 497 0
501 -27 -727 0
-501 27 0
-501 727 0
502 -501 -850 0
-502 501 0
-502 850 0
503 -898 -500 0
-503 898 0
-503 500 0
504 -703 -5 0
-504 703 0
-504 5 0
505 -504 -728 0
-505 504 0
-505 728 0
506 -899 -503 0
-506 899 0
-506 503 0
507 -37 -18 0
-507 37 0
-507 18 0
508 -507 -721 0
-508 507 0
-508 721 0
509 -900 -506 0
-509 900 0
-509 506 0
510 -36 -741 0
-510 36 0
-510 741 0
511 -510 -704 0
-511 510 0
-511 704 0
512 -901 -509 0
-512 901 0
-512 509 0
513 -38 -700 0
-513 38 0
-513 700 0
514 -513 -13 0
-514 513 0
-514 13 0
515 -902 -512 0
-515 902 0
-515 512 0
516 -803 -706 0
-516 803 0
-516 706 0
517 -516 -21 0
-517 516 0
-517 21 0
518 -903 -515 0
-518 903 0
-518 515 0
519 -850 -20 0
-519 850 0
-519 20 0
520 -519 -724 0
-520 519 0
-520 724 0
521 -904 -518 0
-521 904 0
-521 518 0
522 -709 -9 0
-522 709 0
-522 9 0
523 -522 -701 0
-523 522 0
-523 701 0
524 -905 -521 0
-524 905 0
-524 521 0
525 -824 -44 0
-525 824 0
-525 44 0
526 -525 -47 0
-526 525 0
-526 47 0
527 -906 -524 0
-527 906 0
-527 524 0
528 -48 -7 0
-528 48 0
-528 7 0
529 -528 -13 0
-529 528 0
-529 13 0
530 -907 -527 0
-530 907 0
-530 527 0
531 -824 -751 0
-531 824 0
-531 751 0
532 -531 -697 0
-532 531 0
-532 697 0
533 -908 -530 0
-533 908 0
-533 530 0
534 -783 -779 0
-534 783 0
-534 779 0
535 -534 -13 0
-535 534 0
-535 13 0
536 -909 -533 0
-536 909 0
-536 533 0
537 -50 -700 0
-537 50 0
-537 700 0
538 -537 -45 0
-538 537 0
-538 45 0
539 -910 -536 0
-539 910 0
-539 536 0
540 -779 -18 0
-540 779 0
-540 18 0
541 -540 -767 0
-541 540 0
-541 767 0
542 -911 -539 0
-542 911 0
-542 539 0
543 -35 -4 0
-543 35 0
-543 4 0
544 -543 -46 0
-544 543 0
-544 46 0
545 -912 -542 0
-545 912 0
-545 542 0
546 -50 -760 0
-546 50 0
-546 760 0
547 -546 -10 0
-547 546 0
-547 10 0
548 -913 -545 0
-548 913 0
-548 545 0
549 -49 -709 0
-549 49 0
-549 709 0
550 -549 -824 0
-550 549 0
-550 824 0
551 -914 -548 0
-551 914 0
-551 548 0
552 -748 -763 0
-552 748 0
-552 763 0
553 -552 -13 0
-553 552 0
-553 13 0
554 -915 -551 0
-554 915 0
-554 551 0
555 -783 -17 0
-555 783 0
-555 17 0
556 -555 -29 0
-556 555 0
-556 29 0
557 -916 -554 0
-557 916 0
-557 554 0
558 -763 -715 0
-558 763 0
-558 715 0
559 -558 -19 0
-559 558 0
-559 19 0
560 -917 -557 0
-560 917 0
-560 557 0
561 -697 -721 0
-561 697 0
-561 721 0
562 -561 -29 0
-562 561 0
-562 29 0
563 -918 -560 0
-563 918 0
-563 560 0
564 -751 -11 0
-564 751 0
-564 11 0
565 -564 -779 0
-565 564 0
-565 779 0
566 -919 -563 0
-566 919 0
-566 563 0
567 -742 -741 0
-567 742 0
-567 741 0
568 -567 -35 0
-568 567 0
-568 35 0
569 -920 -566 0
-569 920 0
-569 566 0
570 -771 -741 0
-570 771 0
-570 741 0
571 -570 -23 0
-571 570 0
-571 23 0
572 -921 -569 0
-572 921 0
-572 569 0
573 -50 -38 0
-573 50 0
-573 38 0
574 -573 -12 0
-574 573 0
-574 12 0
575 -922 -572 0
-575 922 0
-575 572 0
576 -733 -27 0
-576 733 0
-576 27 0
577 -576 -718 0
-577 576 0
-577 718 0
578 -923 -575 0
-578 923 0
-578 575 0
579 -30 -790 0
-579 30 0
-579 790 0
580 -579 -20 0
-580 579 0
-580 20 0
581 -924 -578 0
-581 924 0
-581 578 0
582 -763 -11 0
-582 763 0
-582 11 0
583 -582 -718 0
-583 582 0
-583 718 0
584 -925 -581 0
-584 925 0
-584 581 0
585 -460 -3 0
-585 460 0
-585 3 0
586 -926 -584 0
-586 926 0
-586 584 0
587 -824 -781 0
-587 824 0
-587 781 0
588 -587 -706 0
-588 587 0
-588 706 0
589 -927 -586 0
-589 927 0
-589 586 0
590 -22 -790 0
-590 22 0
-590 790 0
591 -590 -721 0
-591 590 0
-591 721 0
592 -928 -589 0
-592 928 0
-592 589 0
593 -824 -790 0
-593 824 0
-593 790 0
594 -593 -726 0
-594 593 0
-594 726 0
595 -929 -592 0
-595 929 0
-595 592 0
596 -35 -14 0
-596 35 0
-596 14 0
597 -596 -744 0
-597 596 0
-597 744 0
598 -930 -595 0
-598 930 0
-598 595 0
599 -769 -24 0
-599 769 0
-599 24 0
600 -599 -34 0
-600 599 0
-600 34 0
601 -931 -598 0
-601 931 0
-601 598 0
602 -48 -32 0
-602 48 0
-602 32 0
603 -602 -19 0
-603 602 0
-603 19 0
604 -932 -601 0
-604 932 0
-604 601 0
605 -763 -1 0
-605 763 0
-605 1 0
606 -605 -35 0
-606 605 0
-606 35 0
607 -933 -604 0
-607 933 0
-607 604 0
608 -20 -18 0
-608 20 0
-608 18 0
609 -608 -704 0
-609 608 0
-609 704 0
610 -934 -607 0
-610 934 0
-610 607 0
611 -882 -2 0
-611 882 0
-611 2 0
612 -611 -21 0
-612 611 0
-612 21 0
613 -935 -610 0
-613 935 0
-613 610 0
614 -38 -30 0
-614 38 0
-614 30 0
615 -614 -46 0
-615 614 0
-615 46 0
616 -936 -613 0
-616 936 0
-616 613 0
617 -783 -734 0
-617 783 0
-617 734 0
618 -617 -718 0
-618 617 0
-618 718 0
619 -937 -616 0
-619 937 0
-619 616 0
620 -11 -696 0
-620 11 0
-620 696 0
621 -620 -769 0
-621 620 0
-621 769 0
622 -938 -619 0
-622 938 0
-622 619 0
623 -27 -697 0
-623 27 0
-623 697 0
624 -623 -728 0
-624 623 0
-624 728 0
625 -939 -622 0
-625 939 0
-625 622 0
626 -763 -710 0
-626 763 0
-626 710 0
627 -626 -20 0
-627 626 0
-627 20 0
628 -940 -625 0
-628 940 0
-628 625 0
629 -345 -735 0
-629 345 0
-629 735 0
630 -941 -628 0
-630 941 0
-630 628 0
631 -28 -4 0
-631 28 0
-631 4 0
632 -631 -731 0
-632 631 0
-632 731 0
633 -942 -630 0
-633 942 0
-633 630 0
634 -712 -2 0
-634 712 0
-634 2 0
635 -634 -724 0
-635 634 0
-635 724 0
636 -943 -633 0
-636 943 0
-636 633 0
637 -742 -727 0
-637 742 0
-637 727 0
638 -637 -827 0
-638 637 0
-638 827 0
639 -944 -636 0
-639 944 0
-639 636 0
640 -17 -9 0
-640 17 0
-640 9 0
641 -640 -827 0
-641 640 0
-641 827 0
642 -945 -639 0
-642 945 0
-642 639 0
643 -769 -1 0
-643 769 0
-643 1 0
644 -643 -850 0
-644 643 0
-644 850 0
645 -946 -642 0
-645 946 0
-645 642 0
646 -835 -5 0
-646 835 0
-646 5 0
647 -646 -14 0
-647 646 0
-647 14 0
648 -947 -645 0
-648 947 0
-648 645 0
649 -40 -1 0
-649 40 0
-649 1 0
650 -649 -767 0
-650 649 0
-650 767 0
651 -948 -648 0
-651 948 0
-651 648 0
652 -835 -40 0
-652 835 0
-652 40 0
653 -652 -27 0
-653 652 0
-653 27 0
654 -949 -651 0
-654 949 0
-654 651 0
655 -751 -30 0
-655 751 0
-655 30 0
656 -655 -748 0
-656 655 0
-656 748 0
657 -950 -654 0
-657 950 0
-657 654 0
658 -32 -747 0
-658 32 0
-658 747 0
659 -658 -3 0
-659 658 0
-659 3 0
660 -951 -657 0
-660 951 0
-660 657 0
661 -31 -697 0
-661 31 0
-661 697 0
662 -661 -3 0
-662 661 0
-662 3 0
663 -952 -660 0
-663 952 0
-663 660 0
664 -11 -6 0
-664 11 0
-664 6 0
665 -664 -813 0
-665 664 0
-665 813 0
666 -953 -663 0
-666 953 0
-666 663 0
667 -46 -767 0
-667 46 0
-667 767 0
668 -667 -718 0
-668 667 0
-668 718 0
669 -954 -666 0
-669 954 0
-669 666 0
670 -401 -20 0
-670 401 0
-670 20 0
671 -955 -669 0
-671 955 0
-671 669 0
672 -751 -731 0
-672 751 0
-672 731 0
673 -672 -726 0
-673 672 0
-673 726 0
674 -956 -671 0
-674 956 0
-674 671 0
675 -759 -704 0
-675 759 0
-675 704 0
676 -675 -813 0
-676 675 0
-676 813 0
677 -957 -674 0
-677 957 0
-677 674 0
678 -50 -709 0
-678 50 0
-678 709 0
679 -678 -726 0
-679 678 0
-679 726 0
680 -958 -677 0
-680 958 0
-680 677 0
681 -742 -735 0
-681 742 0
-681 735 0
682 -681 -850 0
-682 681 0
-682 850 0
683 -959 -680 0
-683 959 0
-683 680 0
684 -882 -733 0
-684 882 0
-684 733 0
685 -684 -3 0
-685 684 0
-685 3 0
686 -960 -683 0
-686 960 0
-686 683 0
687 -715 -721 0
-687 715 0
-687 721 0
688 -687 -45 0
-688 687 0
-688 45 0
689 -961 -686 0
-689 961 0
-689 686 0
690 -781 -14 0
-690 781 0
-690 14 0
691 -690 -728 0
-691 690 0
-691 728 0
692 -962 -689 0
-692 962 0
-692 689 0
693 -763 -790 0
-693 763 0
-693 790 0
694 -693 -34 0
-694 693 0
-694 34 0
695 -963 -692 0
-695 963 0
-695 692 0
-696 -4 0
696 4 0
-697 -6 0
697 6 0
-698 -54 0
698 54 0
-699 -52 0
699 52 0
-700 -2 0
700 2 0
-701 -7 0
701 7 0
-702 -57 0
702 57 0
-703 -8 0
703 8 0
-704 -10 0
704 10 0
-705 -60 0
705 60 0
-706 -12 0
706 12 0
-707 -63 0
707 63 0
-708 -66 0
708 66 0
-709 -17 0
709 17 0
-710 -16 0
710 16 0
-711 -69 0
711 69 0
-712 -19 0
712 19 0
-713 -72 0
713 72 0
-714 -75 0
714 75 0
-715 -22 0
715 22 0
-716 -78 0
716 78 0
-717 -81 0
717 81 0
-718 -13 0
718 13 0
-719 -84 0
719 84 0
-720 -87 0
720 87 0
-721 -3 0
721 3 0
-722 -90 0
722 90 0
-723 -93 0
723 93 0
-724 -23 0
724 23 0
-725 -96 0
725 96 0
-726 -32 0
726 32 0
-727 -14 0
727 14 0
-728 -33 0
728 33 0
-729 -99 0
729 99 0
-730 -102 0
730 102 0
-731 -25 0
731 25 0
-732 -105 0
732 105 0
-733 -28 0
733 28 0
-734 -5 0
734 5 0
-735 -35 0
735 35 0
-736 -108 0
736 108 0
-737 -111 0
737 111 0
-738 -114 0
738 114 0
-739 -117 0
739 117 0
-740 -120 0
740 120 0
-741 -9 0
741 9 0
-742 -39 0
742 39 0
-743 -123 0
743 123 0
-744 -21 0
744 21 0
-745 -126 0
745 126 0
-746 -129 0
746 129 0
-747 -26 0
747 26 0
-748 -41 0
748 41 0
-749 -132 0
749 132 0
-750 -135 0
750 135 0
-751 -37 0
751 37 0
-752 -138 0
752 138 0
-753 -141 0
753 141 0
-754 -144 0
754 144 0
-755 -147 0
755 147 0
-756 -150 0
756 150 0
-757 -153 0
757 153 0
-758 -156 0
758 156 0
-759 -38 0
759 38 0
-760 -36 0
760 36 0
-761 -159 0
761 159 0
-762 -162 0
762 162 0
-763 -31 0
763 31 0
-764 -165 0
764 165 0
-765 -47 0
765 47 0
-766 -168 0
766 168 0
-767 -27 0
767 27 0
-768 -171 0
768 171 0
-769 -48 0
769 48 0
-770 -174 0
770 174 0
-771 -18 0
771 18 0
-772 -177 0
772 177 0
-773 -180 0
773 180 0
-774 -183 0
774 183 0
-775 -11 0
775 11 0
-776 -186 0
776 186 0
-777 -189 0
777 189 0
-778 -192 0
778 192 0
-779 -24 0
779 24 0
-780 -195 0
780 195 0
-781 -30 0
781 30 0
-782 -198 0
782 198 0
-783 -46 0
783 46 0
-784 -201 0
784 201 0
-785 -204 0
785 204 0
-786 -207 0
786 207 0
-787 -210 0
787 210 0
-788 -213 0
788 213 0
-789 -216 0
789 216 0
-790 -1 0
790 1 0
-791 -219 0
791 219 0
-792 -222 0
792 222 0
-793 -225 0
793 225 0
-794 -228 0
794 228 0
-795 -231 0
795 231 0
-796 -15 0
796 15 0
-797 -234 0
797 234 0
-798 -237 0
798 237 0
-799 -240 0
799 240 0
-800 -243 0
800 243 0
-801 -246 0
801 246 0
-802 -249 0
802 249 0
-803 -44 0
803 44 0
-804 -252 0
804 252 0
-805 -255 0
805 255 0
-806 -258 0
806 258 0
-807 -261 0
807 261 0
-808 -264 0
808 264 0
-809 -43 0
809 43 0
-810 -267 0
810 267 0
-811 -270 0
811 270 0
-812 -273 0
812 273 0
-813 -34 0
813 34 0
-814 -276 0
814 276 0
-815 -279 0
815 279 0
-816 -282 0
816 282 0
-817 -285 0
817 285 0
-818 -288 0
818 288 0
-819 -291 0
819 291 0
-820 -42 0
820 42 0
-821 -294 0
821 294 0
-822 -297 0
822 297 0
-823 -300 0
823 300 0
-824 -50 0
824 50 0
-825 -303 0
825 303 0
-826 -306 0
826 306 0
-827 -45 0
827 45 0
-828 -309 0
828 309 0
-829 -312 0
829 312 0
-830 -315 0
830 315 0
-831 -318 0
831 318 0
-832 -321 0
832 321 0
-833 -324 0
833 324 0
-834 -327 0
834 327 0
-835 -49 0
835 49 0
-836 -330 0
836 330 0
-837 -333 0
837 333 0
-838 -335 0
838 335 0
-839 -337 0
839 337 0
-840 -340 0
840 340 0
-841 -343 0
841 343 0
-842 -346 0
842 346 0
-843 -349 0
843 349 0
-844 -352 0
844 352 0
-845 -355 0
845 355 0
-846 -358 0
846 358 0
-847 -361 0
847 361 0
-848 -364 0
848 364 0
-849 -367 0
849 367 0
-850 -29 0
850 29 0
-851 -370 0
851 370 0
-852 -373 0
852 373 0
-853 -376 0
853 376 0
-854 -379 0
854 379 0
-855 -382 0
855 382 0
-856 -385 0
856 385 0
-857 -20 0
857 20 0
-858 -387 0
858 387 0
-859 -390 0
859 390 0
-860 -393 0
860 393 0
-861 -396 0
861 396 0
-862 -399 0
862 399 0
-863 -402 0
863 402 0
-864 -405 0
864 405 0
-865 -408 0
865 408 0
-866 -411 0
866 411 0
-867 -414 0
867 414 0
-868 -416 0
868 416 0
-869 -419 0
869 419 0
-870 -422 0
870 422 0
-871 -425 0
871 425 0
-872 -428 0
872 428 0
-873 -431 0
873 431 0
-874 -434 0
874 434 0
-875 -437 0
875 437 0
-876 -440 0
876 440 0
-877 -443 0
877 443 0
-878 -446 0
878 446 0
-879 -449 0
879 449 0
-880 -452 0
880 452 0
-881 -455 0
881 455 0
-882 -40 0
882 40 0
-883 -458 0
883 458 0
-884 -461 0
884 461 0
-885 -464 0
885 464 0
-886 -467 0
886 467 0
-887 -470 0
887 470 0
-888 -473 0
888 473 0
-889 -476 0
889 476 0
-890 -479 0
890 479 0
-891 -482 0
891 482 0
-892 -485 0
892 485 0
-893 -488 0
893 488 0
-894 -490 0
894 490 0
-895 -493 0
895 493 0
-896 -496 0
896 496 0
-897 -499 0
897 499 0
-898 -502 0
898 502 0
-899 -505 0
899 505 0
-900 -508 0
900 508 0
-901 -511 0
901 511 0
-902 -514 0
902 514 0
-903 -517 0
903 517 0
-904 -520 0
904 520 0
-905 -523 0
905 523 0
-906 -526 0
906 526 0
-907 -529 0
907 529 0
-908 -532 0
908 532 0
-909 -535 0
909 535 0
-910 -538 0
910 538 0
-911 -541 0
911 541 0
-912 -544 0
912 544 0
-913 -547 0
913 547 0
-914 -550 0
914 550 0
-915 -553 0
915 553 0
-916 -556 0
916 556 0
-917 -559 0
917 559 0
-918 -562 0
918 562 0
-919 -565 0
919 565 0
-920 -568 0
920 568 0
-921 -571 0
921 571 0
-922 -574 0
922 574 0
-923 -577 0
923 577 0
-924 -580 0
924 580 0
-925 -583 0
925 583 0
-926 -585 0
926 585 0
-927 -588 0
927 588 0
-928 -591 0
928 591 0
-929 -594 0
929 594 0
-930 -597 0
930 597 0
-931 -600 0
931 600 0
-932 -603 0
932 603 0
-933 -606 0
933 606 0
-934 -609 0
934 609 0
-935 -612 0
935 612 0
-936 -615 0
936 615 0
-937 -618 0
937 618 0
-938 -621 0
938 621 0
-939 -624 0
939 624 0
-940 -627 0
940 627 0
-941 -629 0
941 629 0
-942 -632 0
942 632 0
-943 -635 0
943 635 0
-944 -638 0
944 638 0
-945 -641 0
945 641 0
-946 -644 0
946 644 0
-947 -647 0
947 647 0
-948 -650 0
948 650 0
-949 -653 0
949 653 0
-950 -656 0
950 656 0
-951 -659 0
951 659 0
-952 -662 0
952 662 0
-953 -665 0
953 665 0
-954 -668 0
954 668 0
-955 -670 0
955 670 0
-956 -673 0
956 673 0
-957 -676 0
957 676 0
-958 -679 0
958 679 0
-959 -682 0
959 682 0
-960 -685 0
960 685 0
-961 -688 0
961 688 0
-962 -691 0
962 691 0
-963 -694 0
963 694 0
695 0
